
******************************************************************************
This program contains Ipopt, a library for large-scale nonlinear optimization.
 Ipopt is released as open source code under the Eclipse Public License (EPL).
         For more information visit http://projects.coin-or.org/Ipopt

This version of Ipopt was compiled from source code available at
    https://github.com/IDAES/Ipopt as part of the Institute for the Design of
    Advanced Energy Systems Process Systems Engineering Framework (IDAES PSE
    Framework) Copyright (c) 2018-2019. See https://github.com/IDAES/idaes-pse.

This version of Ipopt was compiled using HSL, a collection of Fortran codes
    for large-scale scientific computation.  All technical papers, sales and
    publicity material resulting from use of the HSL codes within IPOPT must
    contain the following acknowledgement:
        HSL, a collection of Fortran codes for large-scale scientific
        computation. See http://www.hsl.rl.ac.uk.
******************************************************************************

This is Ipopt version 3.13.2, running with linear solver ma27.

Number of nonzeros in equality constraint Jacobian...:     1840
Number of nonzeros in inequality constraint Jacobian.:        0
Number of nonzeros in Lagrangian Hessian.............:     3296

Total number of variables............................:      640
                     variables with only lower bounds:      128
                variables with lower and upper bounds:      448
                     variables with only upper bounds:        0
Total number of equality constraints.................:      632
Total number of inequality constraints...............:        0
        inequality constraints with only lower bounds:        0
   inequality constraints with lower and upper bounds:        0
        inequality constraints with only upper bounds:        0

iter    objective    inf_pr   inf_du lg(mu)  ||d||  lg(rg) alpha_du alpha_pr  ls
   0  0.0000000e+00 2.83e+00 4.00e-15  -1.0 0.00e+00    -  0.00e+00 0.00e+00   0
   1  1.1526988e+01 2.36e+01 1.78e+03  -1.0 4.41e+04    -  5.61e-01 9.90e-01h  1
   2  1.1866323e+01 2.24e+01 4.75e+02  -1.0 4.45e+03    -  9.33e-01 9.90e-01h  1
   3  1.1787618e+01 1.97e-01 3.00e+03  -1.0 9.73e+02    -  9.60e-01 9.90e-01h  1
   4  1.1787723e+01 4.97e-03 2.96e+01  -1.0 4.46e+00  -4.0 9.90e-01 9.90e-01h  1
   5  1.1756948e+01 4.97e-03 9.59e+08  -1.0 5.31e+03    -  9.90e-01 3.09e-02f  6
   6  1.1636218e+01 6.94e-01 1.73e+09  -1.0 6.23e+03    -  9.90e-01 1.24e-01f  4
   7  1.1280810e+01 5.71e-02 2.91e+07  -1.0 4.48e+03    -  1.00e+00 9.90e-01H  1
   8  1.1298011e+01 1.14e-01 1.18e+09  -1.0 2.21e+02    -  1.00e+00 9.90e-01H  1
   9  1.1297512e+01 4.11e-03 1.18e+11  -1.0 1.40e+01    -  1.00e+00 9.90e-01h  1
In iteration 9, 32 Slacks too small, adjusting variable bounds
iter    objective    inf_pr   inf_du lg(mu)  ||d||  lg(rg) alpha_du alpha_pr  ls
  10  1.1297346e+01 2.51e-05 1.18e+13  -1.0 2.00e+00    -  1.00e+00 9.90e-01h  1
  11  1.1297343e+01 7.00e-09 6.64e-02  -1.0 2.99e-02    -  1.00e+00 1.00e+00h  1
  12  1.1296849e+01 1.51e-04 1.10e+13  -9.0 2.32e+02    -  9.46e-01 3.12e-02f  6
  13  1.1296727e+01 8.76e-06 1.70e+08  -9.0 6.37e-01  -4.5 1.00e+00 1.00e+00h  1
  14  1.1296489e+01 5.17e-05 9.36e+07  -9.0 2.88e+03    -  4.48e-01 4.40e-04f  9
  15  1.1296253e+01 9.50e-05 3.07e+07  -9.0 2.78e+03    -  6.72e-01 4.51e-04f  9
  16  1.1296018e+01 1.41e-04 7.11e+06  -9.0 2.29e+03    -  7.68e-01 5.45e-04f  9
  17  1.1295957e+01 1.44e-04 1.03e+06  -9.0 1.18e+03    -  8.56e-01 2.74e-04h 11
  18  1.1295940e+01 1.45e-04 2.78e+05  -9.0 5.58e+02    -  7.29e-01 1.61e-04h 13
  19  1.1228882e+01 1.47e+02 1.23e+04  -9.0 4.50e+02    -  9.56e-01 8.67e-01f  1
iter    objective    inf_pr   inf_du lg(mu)  ||d||  lg(rg) alpha_du alpha_pr  ls
  20  1.1269217e+01 4.19e+00 1.23e+04  -9.0 2.90e+02  -5.0 7.59e-04 1.00e+00h  1
  21  1.1269205e+01 4.19e+00 1.12e+04  -9.0 2.14e+02  -5.4 9.07e-02 2.41e-07H  1
  22  1.1270875e+01 2.17e+00 1.09e+04  -9.0 2.84e+02  -5.9 2.52e-02 5.00e-01h  2
  23  1.1272304e+01 1.41e+00 1.23e+03  -9.0 8.54e+02    -  8.88e-01 5.00e-01h  2
  24  1.1274836e+01 2.43e+00 9.98e+00  -9.0 1.01e+03    -  1.00e+00 2.50e-01h  3
  25  1.1261031e+01 1.10e+00 9.95e+00  -9.0 2.70e+02  -5.5 3.71e-03 8.44e-05H  1
  26  1.1197995e+01 2.02e+02 6.19e+00  -9.0 1.43e+03    -  8.88e-01 9.89e-01h  1
  27  1.0899187e+01 1.98e+02 1.04e+01  -9.0 5.11e+05    -  2.54e-09 1.91e-02h  6
  28  1.1095007e+01 1.97e+02 1.08e+01  -9.0 4.15e+05    -  4.05e-02 5.13e-03h  8
  29  1.1211004e+01 1.97e+02 1.09e+01  -9.0 5.03e+05    -  2.86e-09 2.30e-03h  4
iter    objective    inf_pr   inf_du lg(mu)  ||d||  lg(rg) alpha_du alpha_pr  ls
  30  1.1220037e+01 1.97e+02 1.10e+01  -9.0 4.72e+05  -6.0 8.53e-03 1.52e-04h  4
  31  1.1226981e+01 1.97e+02 1.10e+01  -9.0 5.03e+05    -  6.56e-02 1.27e-04h 11
  32  1.1228856e+01 1.97e+02 1.10e+01  -9.0 5.03e+05    -  2.85e-02 3.41e-05h 13
  33r 1.1228856e+01 1.97e+02 1.00e+03   2.3 0.00e+00    -  0.00e+00 2.71e-07R 20
  34r 1.1228855e+01 1.94e+02 9.98e+02   2.3 3.74e+04    -  4.94e-03 7.72e-05f  7
  35r 1.1228795e+01 4.21e+01 9.98e+02   0.9 2.55e+04    -  5.21e-04 6.32e-03f  1
  36  1.1227243e+01 1.52e+02 3.24e+02  -9.0 5.33e+05    -  3.50e-01 5.06e-04H  1
  37  1.1228788e+01 1.52e+02 3.24e+02  -9.0 4.95e+05    -  2.95e-09 3.00e-05h 15
  38r 1.1228788e+01 1.52e+02 9.99e+02   2.2 0.00e+00    -  0.00e+00 4.68e-07R 21
  39r 1.1228812e+01 4.08e+01 9.97e+02   2.2 1.19e+06    -  4.26e-04 1.36e-04f  1
iter    objective    inf_pr   inf_du lg(mu)  ||d||  lg(rg) alpha_du alpha_pr  ls
  40r 1.1228808e+01 1.09e+01 9.56e+02   1.5 8.18e+03    -  4.98e-02 4.24e-03f  1
  41  1.1255283e+01 1.09e+01 3.22e+02  -9.0 5.45e+05    -  2.35e-01 6.19e-04h  9
  42  1.1258694e+01 1.09e+01 3.22e+02  -9.0 5.44e+05    -  9.02e-01 7.70e-05h 12
  43  1.1260408e+01 1.09e+01 3.22e+02  -9.0 5.44e+05    -  1.66e-01 3.85e-05h 13
  44r 1.1260408e+01 1.09e+01 9.99e+02   1.0 0.00e+00    -  0.00e+00 3.00e-07R 20
  45r 1.1260017e+01 2.14e+00 9.96e+02   1.0 6.96e+03    -  4.37e-03 1.41e-03f  1
  46  1.1260563e+01 2.14e+00 6.28e-01  -9.0 6.47e+05    -  1.30e-01 1.59e-05h 14
  47  1.2558890e+01 2.11e+00 1.20e+01  -9.0 6.47e+05    -  4.81e-01 1.63e-02h  4
  48  1.4581356e+01 2.08e+00 2.26e+01  -9.0 6.95e+05    -  1.59e-01 1.37e-02h  4
  49  4.7056238e+01 1.87e+00 3.69e+02  -9.0 4.91e+05    -  1.00e+00 1.02e-01h  1
iter    objective    inf_pr   inf_du lg(mu)  ||d||  lg(rg) alpha_du alpha_pr  ls
  50r 4.7056238e+01 1.87e+00 9.99e+02   0.3 0.00e+00    -  0.00e+00 6.42e-10R  2
  51r 4.7052530e+01 8.15e+00 9.99e+02   0.3 3.77e+07    -  8.70e-07 7.90e-07f  1
  52r 4.7052265e+01 6.60e+00 1.07e+03   0.3 7.26e+03    -  6.77e-03 1.20e-03f  1
  53r 4.7051605e+01 6.52e+00 1.06e+03   0.3 1.98e+03    -  4.99e-02 6.12e-03f  1
  54r 4.7050603e+01 6.40e+00 1.12e+03   0.3 1.23e+03    -  6.19e-02 1.86e-02f  1
  55r 4.7050533e+01 6.36e+00 1.04e+03   0.3 1.50e+02    -  6.76e-02 5.50e-03f  1
  56r 4.7050159e+01 6.16e+00 8.16e+02   0.3 8.33e+01    -  3.69e-01 3.23e-02f  1
  57r 4.7048759e+01 4.38e+00 5.78e+02   0.3 3.07e+01    -  1.00e+00 2.88e-01f  1
  58r 4.7053435e+01 7.71e+00 1.68e+01   0.3 1.62e+01    -  1.00e+00 1.00e+00f  1
  59r 4.7048581e+01 6.95e+00 1.02e+03  -0.4 9.68e+01    -  7.44e-01 9.85e-02f  1
iter    objective    inf_pr   inf_du lg(mu)  ||d||  lg(rg) alpha_du alpha_pr  ls
  60r 4.7034536e+01 5.32e+00 4.95e+02  -0.4 1.13e+02    -  1.00e+00 2.35e-01f  1
  61r 4.6988560e+01 3.17e-01 3.45e+01  -0.4 1.15e+02    -  1.00e+00 9.40e-01f  1
  62  4.4651919e+01 3.06e-01 4.88e+00  -9.0 1.27e+05    -  4.61e-01 3.50e-02F  1
  63  4.2306762e+01 3.34e-01 4.83e+01  -9.0 1.21e+05    -  2.71e-05 5.59e-02F  1
  64  4.2306671e+01 3.34e-01 4.83e+01  -9.0 1.57e+05    -  7.85e-07 2.72e-06h  1
  65  5.2423316e+01 2.50e-01 2.97e+02  -9.0 1.97e+05    -  1.00e-07 2.50e-01h  3
  66  5.2423265e+01 2.50e-01 2.97e+02  -9.0 8.26e+04  -6.4 9.03e-01 2.17e-06H  1
  67  5.3031175e+01 2.10e-01 2.90e+02  -9.0 1.45e+05  -6.9 3.10e-02 3.12e-02h  6
  68  5.2030079e+01 1.57e-01 2.18e+02  -9.0 6.82e+04    -  5.66e-02 2.50e-01f  3
  69  5.1948228e+01 1.38e-01 1.91e+02  -9.0 4.95e+04    -  5.62e-01 1.25e-01f  4
iter    objective    inf_pr   inf_du lg(mu)  ||d||  lg(rg) alpha_du alpha_pr  ls
  70  5.1942939e+01 2.10e-01 1.89e+02  -9.0 4.28e+04    -  1.24e-01 7.46e-03h  5
  71  5.1937323e+01 2.04e-01 1.83e+02  -9.0 4.25e+04    -  6.98e-01 3.12e-02h  6
  72  5.1934880e+01 2.01e-01 1.81e+02  -9.0 4.10e+04    -  1.59e-01 1.56e-02h  7
  73  5.1935286e+01 1.95e-01 1.75e+02  -9.0 4.02e+04    -  1.38e-02 3.12e-02h  6
  74  5.1730523e+01 1.89e-01 1.69e+02  -9.0 5.16e+04    -  1.60e-03 3.12e-02f  6
  75  5.0294273e+01 2.50e-01 1.69e+02  -9.0 3.98e+05    -  1.44e-03 5.38e-03f  5
  76  3.6791985e+01 3.74e+00 1.17e+02  -9.0 1.37e+05    -  1.65e-02 2.99e-01f  2
  77  3.2402236e+01 9.03e+01 1.35e+02  -9.0 5.52e+04    -  4.03e-01 6.34e-01w  1
  78  2.6631771e+01 1.04e+00 2.87e+01  -9.0 3.48e+04    -  1.00e+00 1.00e+00f  1
  79  2.5915597e+01 5.72e-01 1.59e+02  -9.0 5.14e+03    -  9.88e-01 1.00e+00h  1
iter    objective    inf_pr   inf_du lg(mu)  ||d||  lg(rg) alpha_du alpha_pr  ls
  80  2.0983074e+01 3.14e+00 5.99e+04  -9.0 2.50e+04    -  3.27e-01 9.58e-01f  1
  81  1.8701620e+01 4.14e+01 6.19e+04  -9.0 4.47e+04    -  8.68e-09 5.00e-01f  2
  82  2.5606846e+01 3.77e+01 4.42e+04  -9.0 3.62e+05    -  2.80e-01 8.88e-02h  3
  83  2.5970367e+01 3.75e+01 4.35e+04  -9.0 1.05e+06    -  1.49e-02 4.23e-03h  3
  84  2.5920555e+01 3.73e+01 4.23e+04  -9.0 1.38e+06    -  2.75e-02 6.94e-03f  2
  85  2.6459463e+01 3.66e+01 3.41e+04  -9.0 3.83e+05    -  1.87e-01 1.77e-02h  1
  86  2.6580254e+01 3.66e+01 4.73e+03  -9.0 3.76e+05    -  8.19e-01 9.26e-04h  8
  87  2.6610317e+01 3.66e+01 9.45e+02  -9.0 3.75e+05    -  8.73e-01 2.30e-04h 10
  88  2.6625342e+01 3.66e+01 1.77e+03  -9.0 3.74e+05    -  1.00e+00 1.15e-04h 11
  89  2.6629096e+01 3.66e+01 1.77e+03  -9.0 3.74e+05    -  4.00e-01 2.87e-05h 13
iter    objective    inf_pr   inf_du lg(mu)  ||d||  lg(rg) alpha_du alpha_pr  ls
  90  2.6630974e+01 3.66e+01 1.77e+03  -9.0 3.74e+05    -  1.00e+00 1.44e-05h 14
  91  5.1581505e+01 3.23e+01 1.56e+03  -9.0 3.74e+05    -  4.00e-01 1.18e-01h  1
  92  2.7292668e+02 1.70e+01 8.25e+02  -9.0 3.05e+05    -  8.00e-01 4.73e-01H  1
  93  2.7094175e+02 1.67e+01 8.13e+02  -9.0 1.79e+05    -  5.47e-07 1.45e-02f  1
  94  1.0429122e+02 3.00e+00 5.31e+03  -9.0 1.30e+05  -7.4 4.69e-04 1.00e+00f  1
In iteration 94, 32 Slacks too small, adjusting variable bounds
  95  1.0477718e+02 3.00e+00 5.31e+03  -9.0 3.74e+05  -7.0 8.34e-02 9.35e-04h  1
  96  1.0579430e+02 2.98e+00 5.28e+03  -9.0 2.22e+05  -6.5 1.41e-01 7.59e-03h  1
  97  1.0957735e+02 2.96e+00 5.25e+03  -9.0 4.46e+05  -7.0 1.02e-01 6.08e-03h  1
  98r 1.0957735e+02 2.96e+00 1.00e+03   0.5 0.00e+00  -7.5 0.00e+00 2.65e-07R  2
  99r 1.0957016e+02 2.65e+00 1.00e+03   0.5 1.18e+07    -  1.25e-13 2.04e-06f  2
iter    objective    inf_pr   inf_du lg(mu)  ||d||  lg(rg) alpha_du alpha_pr  ls
 100  1.3229216e+02 2.39e+00 2.45e+02  -9.0 3.69e+05    -  1.46e-02 9.44e-02h  2
 101  1.0282664e+02 2.91e+00 1.54e+02  -9.0 3.20e+05    -  8.12e-02 1.33e-01f  1
In iteration 101, 1 Slack too small, adjusting variable bound
 102  7.7857177e+01 3.03e+00 1.11e+02  -9.0 1.23e+05    -  7.49e-03 1.92e-01f  1
In iteration 102, 1 Slack too small, adjusting variable bound
 103  7.8892631e+01 3.02e+00 1.11e+02  -9.0 6.73e+05    -  1.24e-01 3.71e-03h  1
 104  9.2372383e+01 2.98e+00 1.04e+02  -9.0 6.73e+05    -  2.79e-03 3.41e-02h  3
 105  9.8110000e+01 2.95e+00 1.03e+02  -9.0 6.14e+05    -  1.72e-02 9.03e-03h  2
 106  1.0126425e+02 2.94e+00 1.03e+02  -9.0 6.19e+05    -  7.42e-03 4.78e-03h  2
 107  1.0291911e+02 2.93e+00 1.03e+02  -9.0 6.20e+05    -  3.21e-04 2.46e-03h  2
 108  1.0382391e+02 2.92e+00 1.03e+02  -9.0 6.13e+05    -  6.21e-05 1.37e-03h  2
 109  1.0423145e+02 2.92e+00 1.02e+02  -9.0 5.60e+05    -  1.70e-04 7.58e-04h  5
iter    objective    inf_pr   inf_du lg(mu)  ||d||  lg(rg) alpha_du alpha_pr  ls
 110  1.1064971e+02 2.89e+00 1.01e+02  -9.0 5.59e+05    -  7.61e-02 1.15e-02h  1
 111  1.4877683e+02 2.73e+00 1.04e+02  -9.0 5.04e+05    -  1.33e-07 6.73e-02h  3
 112  4.4099192e+02 3.31e+00 1.61e+02  -9.0 2.31e+05    -  7.88e-02 4.83e-01h  2
 113  5.0928449e+02 2.77e+00 1.38e+02  -9.0 2.61e+05    -  1.56e-01 1.64e-01h  3
In iteration 113, 1 Slack too small, adjusting variable bound
 114  1.2403709e+03 3.91e-01 1.33e+03  -9.0 1.79e+05  -8.0 7.58e-02 8.71e-01h  1
 115  1.1971078e+03 3.48e+00 8.11e+02  -9.0 9.77e+04    -  1.18e-02 4.39e-01f  2
 116  9.8310856e+02 1.74e+00 8.84e+02  -9.0 1.47e+05  -8.4 1.09e-01 5.00e-01f  2
 117  8.4482336e+02 6.99e+00 4.04e+02  -9.0 1.15e+05  -7.1 3.40e-01 2.50e-01f  3
 118  2.8752874e+02 3.62e+00 3.91e+02  -9.0 2.28e+05    -  1.02e-01 4.82e-01f  1
In iteration 118, 1 Slack too small, adjusting variable bound
 119  2.8487661e+02 3.48e+00 3.77e+02  -9.0 6.57e+04    -  6.71e-01 3.74e-02f  1
iter    objective    inf_pr   inf_du lg(mu)  ||d||  lg(rg) alpha_du alpha_pr  ls
 120  2.9094383e+02 2.11e-01 1.45e+02  -9.0 6.08e+04    -  2.66e-01 1.00e+00h  1
 121  2.8299793e+02 7.79e-01 9.40e+03  -9.0 2.84e+04    -  9.13e-01 1.00e+00f  1
 122  2.9687195e+02 2.96e-01 2.79e+02  -9.0 2.23e+04    -  9.73e-01 1.00e+00h  1
 123  2.8386060e+02 6.79e-01 9.29e+01  -9.0 2.18e+04    -  9.49e-01 1.00e+00f  1
 124  2.9660485e+02 2.92e-01 8.41e+01  -9.0 2.22e+04    -  9.80e-01 1.00e+00h  1
 125  2.8383814e+02 6.89e-01 8.89e+01  -9.0 2.24e+04    -  9.58e-01 1.00e+00f  1
 126  2.9664593e+02 2.92e-01 8.57e+01  -9.0 2.24e+04    -  1.00e+00 1.00e+00h  1
 127  2.8384363e+02 6.89e-01 8.95e+01  -9.0 2.23e+04    -  1.00e+00 1.00e+00f  1
 128  2.9664423e+02 2.92e-01 8.55e+01  -9.0 2.23e+04    -  1.00e+00 1.00e+00h  1
 129  2.8384344e+02 6.89e-01 8.94e+01  -9.0 2.23e+04    -  1.00e+00 1.00e+00f  1
iter    objective    inf_pr   inf_du lg(mu)  ||d||  lg(rg) alpha_du alpha_pr  ls
 130  2.9664450e+02 2.92e-01 8.55e+01  -9.0 2.23e+04    -  1.00e+00 1.00e+00h  1
 131  2.6999869e+02 1.31e+00 1.10e+02  -9.0 2.23e+04    -  1.00e+00 1.00e+00F  1
 132  2.9770927e+02 3.65e-01 1.28e+02  -9.0 4.11e+04    -  1.00e+00 1.00e+00h  1
 133  2.8360046e+02 6.22e-01 1.08e+02  -9.0 1.82e+04    -  1.00e+00 1.00e+00f  1
 134  2.9645594e+02 2.89e-01 7.52e+01  -9.0 2.18e+04    -  1.00e+00 1.00e+00h  1
 135  2.6988980e+02 1.32e+00 1.07e+02  -9.0 2.24e+04    -  1.00e+00 1.00e+00F  1
 136  2.9767906e+02 3.63e-01 1.29e+02  -9.0 4.12e+04    -  1.00e+00 1.00e+00h  1
 137  2.8359113e+02 6.21e-01 1.09e+02  -9.0 1.82e+04    -  1.00e+00 1.00e+00f  1
 138  2.9645128e+02 2.89e-01 7.51e+01  -9.0 2.18e+04    -  1.00e+00 1.00e+00h  1
 139  2.6988766e+02 1.32e+00 1.07e+02  -9.0 2.24e+04    -  1.00e+00 1.00e+00F  1
iter    objective    inf_pr   inf_du lg(mu)  ||d||  lg(rg) alpha_du alpha_pr  ls
 140  2.9767775e+02 3.63e-01 1.29e+02  -9.0 4.12e+04    -  1.00e+00 1.00e+00h  1
 141  2.8359097e+02 6.21e-01 1.09e+02  -9.0 1.82e+04    -  1.00e+00 1.00e+00f  1
 142  2.9645117e+02 2.89e-01 7.51e+01  -9.0 2.18e+04    -  1.00e+00 1.00e+00h  1
 143  2.6988762e+02 1.32e+00 1.07e+02  -9.0 2.24e+04    -  1.00e+00 1.00e+00F  1
 144  2.9767772e+02 3.63e-01 1.29e+02  -9.0 4.12e+04    -  1.00e+00 1.00e+00h  1
 145  2.8359097e+02 6.21e-01 1.09e+02  -9.0 1.82e+04    -  1.00e+00 1.00e+00f  1
 146  2.9645117e+02 2.89e-01 7.51e+01  -9.0 2.18e+04    -  1.00e+00 1.00e+00h  1
 147  2.6988762e+02 1.32e+00 1.07e+02  -9.0 2.24e+04    -  1.00e+00 1.00e+00F  1
 148  2.9767772e+02 3.63e-01 1.29e+02  -9.0 4.12e+04    -  1.00e+00 1.00e+00h  1
 149  2.8359097e+02 6.21e-01 1.09e+02  -9.0 1.82e+04    -  1.00e+00 1.00e+00f  1
iter    objective    inf_pr   inf_du lg(mu)  ||d||  lg(rg) alpha_du alpha_pr  ls
 150  2.9645117e+02 2.89e-01 7.51e+01  -9.0 2.18e+04    -  1.00e+00 1.00e+00h  1
 151  2.8811747e+02 3.46e-01 5.96e+01  -9.0 2.24e+04    -  1.00e+00 5.00e-01f  2
 152  2.9523935e+02 2.41e-01 2.93e+01  -9.0 1.22e+04    -  1.00e+00 1.00e+00h  1
 153  2.8351062e+02 7.17e-01 6.78e+01  -9.0 2.34e+04    -  1.00e+00 1.00e+00f  1
 154  2.9669681e+02 2.92e-01 9.18e+01  -9.0 2.25e+04    -  1.00e+00 1.00e+00h  1
 155  2.7003850e+02 1.30e+00 1.11e+02  -9.0 2.22e+04    -  1.00e+00 1.00e+00F  1
 156  2.8136417e+02 6.52e-01 8.64e+01  -9.0 4.10e+04    -  1.00e+00 5.00e-01h  2
 157  2.9636384e+02 3.09e-01 3.03e+01  -9.0 2.58e+04    -  1.00e+00 1.00e+00h  1
 158  2.6949382e+02 1.35e+00 1.01e+02  -9.0 2.42e+04    -  1.00e+00 1.00e+00F  1
 159  2.8102214e+02 6.77e-01 8.29e+01  -9.0 4.17e+04    -  1.00e+00 5.00e-01h  2
iter    objective    inf_pr   inf_du lg(mu)  ||d||  lg(rg) alpha_du alpha_pr  ls
 160  2.9646261e+02 3.13e-01 3.04e+01  -9.0 2.66e+04    -  1.00e+00 1.00e+00h  1
 161  2.6953149e+02 1.35e+00 1.02e+02  -9.0 2.42e+04    -  1.00e+00 1.00e+00F  1
 162  2.8104675e+02 6.76e-01 8.33e+01  -9.0 4.17e+04    -  1.00e+00 5.00e-01h  2
 163  2.9645961e+02 3.13e-01 3.04e+01  -9.0 2.66e+04    -  1.00e+00 1.00e+00h  1
 164  2.6952986e+02 1.35e+00 1.02e+02  -9.0 2.43e+04    -  1.00e+00 1.00e+00F  1
 165  2.8104575e+02 6.76e-01 8.33e+01  -9.0 4.17e+04    -  1.00e+00 5.00e-01h  2
 166  2.9646000e+02 3.13e-01 3.04e+01  -9.0 2.66e+04    -  1.00e+00 1.00e+00h  1
 167  2.8789692e+02 3.56e-01 2.80e+01  -9.0 2.43e+04    -  1.00e+00 5.00e-01f  2
 168  2.9526751e+02 2.39e-01 2.92e+01  -9.0 1.17e+04    -  1.00e+00 1.00e+00h  1
 169  2.6913946e+02 1.37e+00 9.08e+01  -9.0 2.34e+04    -  1.00e+00 1.00e+00F  1
iter    objective    inf_pr   inf_du lg(mu)  ||d||  lg(rg) alpha_du alpha_pr  ls
 170  2.8078584e+02 6.85e-01 7.85e+01  -9.0 4.11e+04    -  1.00e+00 5.00e-01h  2
 171  2.9646168e+02 3.13e-01 3.04e+01  -9.0 2.66e+04    -  1.00e+00 1.00e+00h  1
 172  2.6953849e+02 1.35e+00 1.02e+02  -9.0 2.42e+04    -  1.00e+00 1.00e+00F  1
 173  2.8105035e+02 6.75e-01 8.33e+01  -9.0 4.16e+04    -  1.00e+00 5.00e-01h  2
 174  2.9645482e+02 3.13e-01 3.04e+01  -9.0 2.66e+04    -  1.00e+00 1.00e+00h  1
 175  2.6952838e+02 1.35e+00 1.02e+02  -9.0 2.42e+04    -  1.00e+00 1.00e+00F  1
 176  2.8104473e+02 6.76e-01 8.33e+01  -9.0 4.17e+04    -  1.00e+00 5.00e-01h  2
 177  2.9645991e+02 3.13e-01 3.04e+01  -9.0 2.66e+04    -  1.00e+00 1.00e+00h  1
 178  2.6953001e+02 1.35e+00 1.02e+02  -9.0 2.43e+04    -  1.00e+00 1.00e+00F  1
 179  2.8104584e+02 6.76e-01 8.33e+01  -9.0 4.17e+04    -  1.00e+00 5.00e-01h  2
iter    objective    inf_pr   inf_du lg(mu)  ||d||  lg(rg) alpha_du alpha_pr  ls
 180  2.9645997e+02 3.13e-01 3.04e+01  -9.0 2.66e+04    -  1.00e+00 1.00e+00h  1
 181  2.8789690e+02 3.56e-01 2.80e+01  -9.0 2.43e+04    -  1.00e+00 5.00e-01f  2
 182  2.9526751e+02 2.39e-01 2.92e+01  -9.0 1.17e+04    -  1.00e+00 1.00e+00h  1
 183  2.8716509e+02 3.58e-01 2.37e+01  -9.0 2.34e+04    -  1.00e+00 5.00e-01f  2
 184  2.9524520e+02 2.40e-01 2.92e+01  -9.0 1.15e+04    -  1.00e+00 1.00e+00h  1
 185  2.6914548e+02 1.37e+00 9.07e+01  -9.0 2.32e+04    -  1.00e+00 1.00e+00F  1
 186  2.8078612e+02 6.83e-01 7.84e+01  -9.0 4.09e+04    -  1.00e+00 5.00e-01h  2
 187  2.9645073e+02 3.12e-01 3.04e+01  -9.0 2.66e+04    -  1.00e+00 1.00e+00h  1
 188  2.6953543e+02 1.35e+00 1.02e+02  -9.0 2.42e+04    -  1.00e+00 1.00e+00F  1
 189  2.8104820e+02 6.75e-01 8.33e+01  -9.0 4.16e+04    -  1.00e+00 5.00e-01h  2
iter    objective    inf_pr   inf_du lg(mu)  ||d||  lg(rg) alpha_du alpha_pr  ls
 190  2.9645445e+02 3.13e-01 3.04e+01  -9.0 2.66e+04    -  1.00e+00 1.00e+00h  1
 191  2.6952834e+02 1.35e+00 1.02e+02  -9.0 2.42e+04    -  1.00e+00 1.00e+00F  1
 192  2.8104469e+02 6.76e-01 8.33e+01  -9.0 4.17e+04    -  1.00e+00 5.00e-01h  2
 193  2.9645985e+02 3.13e-01 3.04e+01  -9.0 2.66e+04    -  1.00e+00 1.00e+00h  1
 194  2.6953000e+02 1.35e+00 1.02e+02  -9.0 2.43e+04    -  1.00e+00 1.00e+00F  1
 195  2.8104583e+02 6.76e-01 8.33e+01  -9.0 4.17e+04    -  1.00e+00 5.00e-01h  2
 196  2.9645997e+02 3.13e-01 3.04e+01  -9.0 2.66e+04    -  1.00e+00 1.00e+00h  1
 197  2.8789690e+02 3.56e-01 2.80e+01  -9.0 2.43e+04    -  1.00e+00 5.00e-01f  2
 198  2.9526751e+02 2.39e-01 2.92e+01  -9.0 1.17e+04    -  1.00e+00 1.00e+00h  1
 199  2.9065965e+02 1.84e-01 1.42e+01  -9.0 2.34e+04    -  1.00e+00 2.50e-01f  3
iter    objective    inf_pr   inf_du lg(mu)  ||d||  lg(rg) alpha_du alpha_pr  ls
 200  2.9664797e+02 5.23e-03 2.16e+01  -9.0 1.49e+04    -  1.00e+00 1.00e+00h  1
 201  2.9644147e+02 1.43e-02 3.66e+01  -9.0 7.78e+02    -  1.00e+00 1.00e+00f  1
 202  2.9407482e+02 6.45e-02 1.23e+01  -9.0 2.20e+03    -  1.00e+00 1.00e+00f  1
 203  2.9414612e+02 5.02e-02 1.21e+00  -9.0 5.17e+03    -  1.00e+00 2.50e-01h  3
 204  2.9675103e+02 3.85e-04 4.40e+00  -9.0 4.21e+03    -  1.00e+00 1.00e+00h  1
 205  2.9675517e+02 5.83e-05 2.99e-01  -9.0 6.23e+01    -  1.00e+00 1.00e+00h  1
 206  2.9675861e+02 3.31e-07 2.11e-03  -9.0 7.42e+00    -  1.00e+00 1.00e+00h  1
 207  2.9675863e+02 1.69e-11 1.10e-07  -9.0 4.61e-02    -  1.00e+00 1.00e+00h  1

Number of Iterations....: 207

                                   (scaled)                 (unscaled)
Objective...............:   2.9675862787998949e+02    2.9675862787998949e+02
Dual infeasibility......:   1.1022722201588067e-07    1.1022722201588067e-07
Constraint violation....:   1.6939338820520788e-11    1.6939338820520788e-11
Complementarity.........:   9.0909101165530810e-10    9.0909101165530810e-10
Overall NLP error.......:   2.5082787994978616e-09    1.1022722201588067e-07


Number of objective function evaluations             = 690
Number of objective gradient evaluations             = 196
Number of equality constraint evaluations            = 690
Number of inequality constraint evaluations          = 0
Number of equality constraint Jacobian evaluations   = 213
Number of inequality constraint Jacobian evaluations = 0
Number of Lagrangian Hessian evaluations             = 207
Total CPU secs in IPOPT (w/o function evaluations)   =      0.241
Total CPU secs in NLP function evaluations           =      7.255

EXIT: Optimal Solution Found.
